lbl,CUST NO.,READY TIME,XCOORD.,YCOORD.,DEMAND,DUE DATE,SERVICE TIME
12,154,0,96,74,10,1235,90
12,173,0,95,77,10,1236,90
12,64,0,94,73,10,1237,90
12,27,0,93,75,30,1238,90
12,178,0,91,78,10,1239,90
12,179,0,91,71,20,1240,90
12,109,0,88,72,30,1243,90
12,45,19,89,73,10,94,90
12,24,467,98,70,10,511,90
12,61,556,94,70,20,610,90
12,100,647,94,72,20,703,90
